0 1
1 23
2 1
3 35
4 39
5 1
6 1
7 33
8 1
9 49
10 1
11 1
12 26
13 1
14 37
15 1
16 1
17 19
18 39
19 36
20 44
21 31
22 15
23 41
24 1
25 10
26 1
27 1
28 1
29 1
30 1
31 1
32 1
33 40
34 1
35 1
36 6
37 27
38 1
39 32
40 22
41 1
42 1
43 29
44 1
45 46
46 1
47 38
48 11
49 1
50 1
51 1
52 50
53 36
54 1
55 28
56 33
57 12
58 1
59 1
60 1
61 43
62 29
63 48
64 39
65 49
66 37
67 36
68 35
69 44
70 32
71 20
72 1
73 20
74 1
75 1
76 33
77 46
78 41
79 13
80 37
81 40
82 47
83 41
84 48
85 1
86 1
87 48
88 1
89 1
90 1
91 48
92 45
93 50
94 1
95 1
96 43
97 39
98 12
99 1
100 27
101 37
102 35
103 49
104 1
105 1
106 27
107 1
108 1
109 29
110 45
111 1
112 32
113 1
114 1
115 12
116 24
117 1
118 33
119 26
120 1
121 29
122 27
123 48
124 23
125 45
126 31
127 33
128 1
129 41
130 46
131 1
132 1
133 37
134 4
135 1
136 1
137 1
138 1
139 1
140 46
141 34
142 25
143 20
144 34
145 30
146 1
147 50
148 46
149 17
150 1
151 40
152 22
153 47
154 42
155 1
156 24
157 36
158 46
159 35
160 1
161 1
162 1
163 1
164 1
165 1
166 1
167 16
168 31
169 33
170 43
171 43
172 41
173 36
174 39
175 26
176 42
177 1
178 38
179 1
180 1
181 1
182 3
183 1
184 1
185 26
186 47
187 1
188 1
189 35
190 45
191 34
192 1
193 1
194 1
195 12
196 32
197 1
198 1
199 1
200 1
201 48
202 34
203 9
204 18
205 1
206 1
207 44
208 49
209 43
210 43
211 1
212 47
213 1
214 1
215 1
216 1
217 34
218 41
219 1
220 24
221 31
222 32
223 45
224 1
225 36
226 48
227 1
228 39
229 46
230 27
231 1
232 1
233 1
234 8
235 41
236 49
237 39
238 1
239 28
240 32
241 1
242 1
243 1
244 1
245 36
246 18
247 37
248 1
249 1
250 1
251 1
252 13
253 30
254 48
255 25
256 1
257 1
258 41
259 1
260 47
261 33
262 1
263 17
264 47
265 49
266 1
267 24
268 7
269 1
270 1
271 1
272 2
273 24
274 47
275 34
276 1
277 28
278 1
279 1
280 49
281 49
282 38
283 1
284 1
285 1
286 1
287 47
288 1
289 28
290 39
291 40
292 49
293 38
294 1
295 42
296 42
297 1
298 14
299 33
300 50
301 43
302 40
303 1
304 28
305 1
306 1
307 3
308 46
309 1
310 36
311 33
312 1
313 34
314 1
315 43
316 25
317 49
318 1
319 33
320 1
321 32
322 1
323 30
324 36
325 41
326 1
327 30
328 21
329 37
330 1
331 1
332 29
333 37
334 46
335 49
336 1
337 1
338 17
339 1
340 33
341 1
342 35
343 50
344 32
345 38
346 16
347 9
348 1
349 49
350 26
351 1
352 1
353 1
354 1
355 1
356 1
357 37
358 1
359 1
360 1
361 46
362 40
363 22
364 1
365 14
366 50
367 1
368 24
369 46
370 17
371 30
372 39
373 36
374 34
375 1
376 1
377 1
378 1
379 1
380 28
381 1
382 1
383 1
384 48
385 39
386 31
387 48
388 29
389 1
390 1
391 1
392 43
393 13
394 29
395 1
396 39
397 32
398 47
399 43
400 1
401 9
402 39
403 46
404 1
405 4
406 1
407 48
408 32
409 1
410 38
411 40
412 1
413 1
414 31
415 27
416 1
417 1
418 1
419 1
420 1
421 1
422 49
423 1
424 49
425 43
426 26
427 1
428 30
429 1
430 1
431 1
432 10
433 1
434 1
435 41
436 41
437 37
438 1
439 1
440 2
441 1
442 1
443 29
444 50
445 17
446 36
447 1
448 29
449 15
450 42
451 1
452 21
453 1
454 1
455 1
456 35
457 16
458 26
459 50
460 23
461 1
462 1
463 27
464 49
465 1
466 47
467 1
468 46
469 1
470 1
471 46
472 1
473 1
474 39
475 1
476 24
477 38
478 50
479 26
480 1
481 18
482 23
483 1
484 1
485 1
486 35
487 38
488 33
489 1
490 1
491 43
492 21
493 1
494 1
495 1
496 1
497 26
498 1
499 39
500 25
501 1
502 15
503 48
504 35
505 45
506 1
507 44
508 1
509 30
510 1
511 1
512 45
513 1
514 1
515 1
516 1
517 1
518 1
519 49
520 1
521 34
522 48
523 29
524 45
525 17
526 32
527 1
528 9
529 1
530 1
531 1
532 48
533 30
534 16
535 38
536 40
537 1
538 1
539 1
540 28
541 1
542 45
543 35
544 1
545 1
546 1
547 31
548 1
549 43
550 1
551 13
552 25
553 1
554 47
555 28
556 1
557 1
558 1
559 44
560 1
561 25
562 40
563 1
564 40
565 36
566 1
567 1
568 1
569 49
570 1
571 1
572 1
573 1
574 38
575 20
576 1
577 9
578 1
579 36
580 1
581 24
582 47
583 1
584 20
585 10
586 25
587 32
588 50
589 38
590 36
591 33
592 36
593 41
594 30
595 1
596 30
597 47
598 1
599 28
600 36
601 48
602 1
603 1
604 1
605 27
606 43
607 1
608 39
609 1
610 42
611 21
612 1
613 47
614 1
615 1
616 26
617 1
618 1
619 1
620 1
621 1
622 28
623 32
624 28
625 30
626 41
627 21
628 41
629 25
630 37
631 18
632 1
633 34
634 1
635 49
636 50
637 7
638 1
639 41
640 1
641 1
642 1
643 35
644 34
645 43
646 13
647 1
648 43
649 1
650 1
651 1
652 40
653 22
654 48
655 1
656 42
657 24
658 1
659 26
660 37
661 29
662 1
663 29
664 40
665 36
666 1
667 1
668 48
669 16
670 18
671 44
672 1
673 1
674 1
675 4
676 17
677 38
678 31
679 1
680 1
681 12
682 1
683 48
684 1
685 1
686 10
687 30
688 1
689 21
690 1
691 49
692 36
693 1
694 1
695 44
696 42
697 1
698 29
699 4
700 1
701 1
702 15
703 1
704 34
705 1
706 25
707 28
708 40
709 20
710 31
711 47
712 38
713 38
714 1
715 1
716 30
717 34
718 47
719 29
720 1
721 1
722 23
723 1
724 33
725 46
726 1
727 26
728 1
729 14
730 24
731 35
732 1
733 33
734 1
735 41
736 1
737 1
738 19
739 32
740 5
741 1
742 35
743 48
744 1
745 24
746 1
747 31
748 1
749 42
750 39
751 36
752 32
753 44
754 1
755 1
756 1
757 49
758 38
759 1
760 1
761 43
762 45
763 1
764 1
765 1
766 1
767 1
768 1
769 1
770 26
771 1
772 1
773 38
774 49
775 34
776 1
777 20
778 31
779 45
780 49
781 1
782 1
783 48
784 47
785 39
786 1
787 34
788 1
789 1
790 33
791 1
792 1
793 42
794 43
795 47
796 32
797 1
798 43
799 49
800 47
801 1
802 1
803 47
804 1
805 1
806 36
807 1
808 27
809 44
810 47
811 1
812 8
813 1
814 1
815 1
816 31
817 1
818 23
819 37
820 1
821 1
822 41
823 1
824 1
825 1
826 25
827 48
828 1
829 32
830 21
831 1
832 1
833 1
834 1
835 1
836 50
837 1
838 1
839 1
840 1
841 1
842 1
843 1
844 19
845 9
846 25
847 47
848 1
849 35
850 33
851 19
852 1
853 1
854 25
855 49
856 46
857 1
858 48
859 38
860 33
861 46
862 1
863 1
864 37
865 31
866 48
867 1
868 1
869 14
870 1
871 24
872 1
873 24
874 34
875 47
876 49
877 47
878 26
879 48
880 21
881 1
882 1
883 1
884 1
885 49
886 1
887 1
888 1
889 50
890 28
891 1
892 1
893 35
894 45
895 29
896 32
897 25
898 46
899 31
900 47
901 1
902 31
903 40
904 1
905 1
906 1
907 41
908 1
909 35
910 28
911 29
912 39
913 1
914 24
915 1
916 39
917 1
918 1
919 33
920 37
921 43
922 22
923 34
924 1
925 29
926 45
927 19
928 1
929 49
930 34
931 41
932 1
933 1
934 23
935 1
936 43
937 4
938 49
939 8
940 50
941 26
942 1
943 1
944 36
945 37
946 1
947 1
948 45
949 1
950 47
951 30
952 33
953 1
954 1
955 1
956 48
957 33
958 35
959 14
960 1
961 47
962 27
963 32
964 1
965 1
966 11
967 43
968 49
969 46
970 1
971 1
972 1
973 20
974 12
975 1
976 29
977 1
978 1
979 40
980 29
981 30
982 13
983 45
984 1
985 1
986 50
987 1
988 1
989 1
990 14
991 36
992 1
993 1
994 1
995 50
996 29
997 6
998 50
999 34

